p edge 20 100
e 1 3
e 1 16
e 1 16
e 1 17
e 1 19
e 2 6
e 2 8
e 2 14
e 2 18
e 2 19
e 3 8
e 3 9
e 3 15
e 3 18
e 3 19
e 4 7
e 4 14
e 4 15
e 4 15
e 4 17
e 5 2
e 5 9
e 5 11
e 5 16
e 5 19
e 6 9
e 6 9
e 6 13
e 6 13
e 6 15
e 7 2
e 7 6
e 7 8
e 7 8
e 7 9
e 8 3
e 8 3
e 8 4
e 8 13
e 8 20
e 9 1
e 9 5
e 9 10
e 9 18
e 9 18
e 10 2
e 10 5
e 10 6
e 10 7
e 10 17
e 11 2
e 11 12
e 11 12
e 11 16
e 11 20
e 12 3
e 12 8
e 12 11
e 12 14
e 12 18
e 13 3
e 13 4
e 13 9
e 13 11
e 13 12
e 14 4
e 14 11
e 14 12
e 14 16
e 14 19
e 15 3
e 15 12
e 15 16
e 15 16
e 15 17
e 16 7
e 16 7
e 16 10
e 16 14
e 16 18
e 17 1
e 17 5
e 17 7
e 17 7
e 17 15
e 18 7
e 18 7
e 18 7
e 18 12
e 18 14
e 19 4
e 19 5
e 19 6
e 19 9
e 19 14
e 20 3
e 20 6
e 20 7
e 20 17
e 20 19
